23258
1 1 1 1 1 1 0 1 1 1 1 1 0 1 1 0 1 0 1 0 1 0 1 1 1 1 0 1 1 0
23 10 0 3 25 8 13 18 7 1 20 13 24 14 28 23 16 8 7 9 22 27 8 7 16 10 20 8 5 27 2 24 11 9 4 23 28 8 7 8 25 13 10 10 4 7 0 16 5 7 22 13 8 7 13 14 28 3 25 25 22 13 8 7 9 0 13 11 10 3 20 22 18 7 23 22 7 8 7 13 11 2 10 10 1 14 28 13 11 5 2 13 8 10 4 23 13 18 7 9 4 24 28 9 4 24 20 8 7 5 22 20 16 5 7 22 27 8 25 9 7 27 8 5 13 22 27 3 5 25 22 13 16 7 7 22 27 3 25 11 8 13 18 18 4 24 20 8 25 5